NAME : bier127.tsp
COMMENT : Optimal tour for bier127.tsp
TYPE : TOUR
DIMENSION : 127
Total Length: 120622.4511188219
TOUR_SECTION
1
16
2
51
57
54
45
103
44
35
37
36
41
14
12
31
80
79
77
18
21
17
22
4
20
108
15
106
6
24
23
19
72
8
67
73
74
68
71
70
69
75
76
78
117
84
81
126
82
83
101
102
63
119
96
109
88
87
86
85
110
104
125
89
92
99
65
113
64
58
100
91
61
62
59
60
116
90
3
9
11
114
105
7
120
10
115
13
50
5
121
56
52
124
66
55
47
53
49
118
48
46
94
112
111
107
127
93
95
123
97
98
32
29
28
122
33
25
26
27
30
38
39
42
34
43
40
-1
EOF
